%chk=C:\Users\Danny\Documents\Gaussian\dielsalder\da_ortho_exo_b3lyp_d3bj_midix_freeze.chk
# hf/3-21g geom=connectivity

Title Card Required

0 2
 C                 -5.77356166    2.10935393   -1.51666154
 H                 -5.51951500    3.09047684   -1.85982060
 C                 -4.84798664    1.34611974   -0.88630331
 H                 -5.10203330    0.36499684   -0.54314425
 C                 -3.42567788    1.89276783   -0.66311358
 H                 -2.69488886    1.29015524   -0.16541339
 C                 -3.09644439    3.13443273   -1.09490130
 H                 -3.82294381    3.74169512   -1.59322948
 H                 -2.10660082    3.50881351   -0.93694956
 N                 -7.13122002    1.58755348   -1.72970628
 H                 -7.08559740    0.75550467   -2.28252936
 C                 -7.93988309    2.59661790   -2.42881503
 O                 -9.11095756    2.32386528   -2.79997693
 O                 -7.39390133    3.89261914   -2.68801517
 H                 -8.07691543    4.46140047   -3.05075412
 C                 -3.92459624    2.66815702   -3.46724407
 C                 -2.73238027    3.11757150   -3.00549225
 H                 -2.29243032    4.00054482   -3.41986185
 H                 -2.22928775    2.58761506   -2.22386313
 ?s                -4.08761533    0.90204922   -2.14036717
 H                 -4.36454620    1.78518371   -3.05287448
 C                 -4.64867332    3.43089806   -4.59220562
 O                 -4.06070282    4.61094650   -5.14598929
 H                 -3.22435732    4.78761151   -4.70905029
 O                 -5.75598589    3.01928802   -5.02580291

 1 2 1.0 3 2.0 10 1.0
 2
 3 4 1.0 5 1.0
 4
 5 6 1.0 7 2.0
 6
 7 8 1.0 9 1.0
 8
 9
 10 11 1.0 12 1.0
 11
 12 13 2.0 14 1.0
 13
 14 15 1.0
 15
 16 17 2.0 21 1.0 22 1.0
 17 18 1.0 19 1.0
 18
 19
 20
 21
 22 23 1.0 25 2.0
 23 24 1.0
 24
 25

