%nprocshared=4
%mem=3GB
#p b3lyp empiricaldispersion=gd3bj midix scrf=(pcm,solvent=1,4-dioxane) opt=modredundant freq=noraman

Diels Alder

0 1
 C                 -5.77356166    2.10935393   -1.51666154
 H                 -5.51951500    3.09047684   -1.85982060
 C                 -4.84798664    1.34611974   -0.88630331
 H                 -5.10203330    0.36499684   -0.54314425
 C                 -3.42567788    1.89276783   -0.66311358
 H                 -2.69488886    1.29015524   -0.16541339
 C                 -3.09644439    3.13443273   -1.09490130
 H                 -3.82294381    3.74169512   -1.59322948
 H                 -2.10660082    3.50881351   -0.93694956
 N                 -7.13122002    1.58755348   -1.72970628
 H                 -7.08559740    0.75550467   -2.28252936
 C                 -7.93988309    2.59661790   -2.42881503
 O                 -9.11095756    2.32386528   -2.79997693
 O                 -7.39390133    3.89261914   -2.68801517
 H                 -8.07691543    4.46140047   -3.05075412
 C                 -3.92459624    2.66815702   -3.46724407
 H                 -4.42768876    3.19811346   -4.24887320
 C                 -2.73238027    3.11757150   -3.00549225
 H                 -2.29243032    4.00054482   -3.41986185
 H                 -2.22928775    2.58761506   -2.22386313
 C                 -4.55779525    1.39733562   -2.87086167
 O                 -5.66485294    0.98002218   -3.29963122
 O                 -3.88543796    0.68907606   -1.82625453
 H                 -4.53151002    0.24016950   -1.27609655



